p cnf 12 53
11 -9 -4 0
-6 3 5 0
7 4 -2 0
10 8 7 0
8 3 -10 0
3 2 4 0
-7 -2 -5 0
12 -9 -1 0
5 -4 2 0
7 11 8 0
4 6 7 0
3 10 -12 0
9 -7 11 0
6 -7 1 0
3 12 -2 0
4 -12 -1 0
-9 -7 -11 0
-3 4 10 0
-12 5 1 0
8 -9 -10 0
-7 -3 9 0
-11 -4 -8 0
5 1 -3 0
12 6 4 0
11 -3 2 0
-5 -3 -10 0
12 8 11 0
-1 -6 3 0
1 10 -6 0
7 4 11 0
-10 -11 -7 0
3 10 -9 0
12 4 2 0
-1 7 8 0
-10 6 -8 0
1 9 12 0
-7 -9 -1 0
2 -7 5 0
-12 11 -8 0
-2 -7 -6 0
5 9 -10 0
12 -9 -1 0
1 8 -4 0
1 12 2 0
-2 -11 7 0
-8 3 -2 0
6 -11 1 0
-6 -1 -11 0
-7 1 -12 0
-11 1 -12 0
-4 -2 -12 0
3 7 12 0
4 -9 -6 0
